263 262 258 259 261 260 257 256 255 253 254 252 251 250 249 248 242 243 244 245 247 246 238 239 240 237 236 235 234 232 233 530 531 532 533 231 230 229 228 227 189 225 226 190 191 192 219 218 220 221 222 224 223 217 216 215 214 213 212 211 210 209 205 206 207 208 203 204 202 201 200 199 198 197 196 195 194 193 184 185 183 182 186 188 187 538 537 539 540 176 177 178 179 181 180 169 171 170 172 175 174 173 108 109 110 111 112 114 115 116 130 133 132 131 113 161 160 162 168 163 167 166 164 165 154 155 159 156 153 157 158 145 146 147 148 152 149 150 151 142 143 144 141 140 136 135 134 137 139 138 129 128 127 126 125 124 69 70 68 67 66 65 72 71 123 122 117 121 120 118 119 73 74 75 76 77 78 62 64 63 60 61 79 80 81 59 58 57 82 83 84 51 50 52 54 53 56 55 49 48 47 46 45 555 91 92 90 85 86 87 88 89 93 94 95 96 97 98 99 552 553 554 556 44 43 42 39 41 40 38 37 36 35 33 34 557 558 559 550 551 101 100 102 103 104 105 106 107 542 541 543 544 547 546 545 548 549 560 561 562 563 564 565 566 567 27 26 28 29 30 32 31 22 25 24 21 23 12 13 14 15 16 11 10 9 7 8 17 18 19 20 568 569 570 474 475 476 477 478 479 480 481 482 483 485 484 536 535 487 534 488 489 486 490 529 528 527 512 511 510 509 513 514 515 516 517 520 521 522 523 526 491 492 493 525 524 494 472 473 471 469 470 495 518 519 497 496 464 465 466 467 468 571 573 572 6 5 0 4 1 2 3 455 456 457 458 459 460 463 462 461 500 499 452 453 441 440 439 454 438 437 436 435 434 433 432 430 429 428 431 445 444 443 442 446 447 448 449 450 451 501 498 502 503 504 505 308 309 310 311 312 313 316 314 315 374 373 322 323 324 325 326 327 328 329 366 367 365 368 369 370 372 371 396 395 375 376 377 378 379 380 381 389 388 390 392 391 393 394 397 398 399 407 408 405 406 400 401 360 359 358 357 402 403 404 409 384 383 385 387 386 382 425 424 426 427 423 422 421 420 419 417 418 410 411 412 356 355 354 353 413 414 416 415 352 351 350 349 348 347 362 361 363 364 346 345 344 343 342 341 340 330 331 332 333 339 338 337 336 335 334 283 284 285 286 287 280 281 282 279 278 288 289 290 277 276 275 274 273 292 291 294 295 296 293 270 269 272 271 268 267 297 321 320 319 317 318 305 306 304 307 506 507 508 303 302 301 241 300 299 298 266 265 264